GLPSOL: GLPK LP/MIP Solver, v4.55
Parameter(s) specified in the command line:
 -m tmp.mod
Reading model section from tmp.mod...
Reading data section from tmp.mod...
1373 lines were read
Generating obj...
Generating kirhoff...
Generating init_charge...
Generating batt_size...
Model has been successfully generated
GLPK Simplex Optimizer, v4.55
1282 rows, 1926 columns, 3978 non-zeros
Preprocessing...
932 rows, 1885 columns, 3887 non-zeros
Scaling...
 A: min|aij| =  1.000e+00  max|aij| =  1.000e+00  ratio =  1.000e+00
Problem data seem to be well scaled
Constructing initial basis...
Size of triangular part is 728
      0: obj =   0.000000000e+00  infeas =  1.620e+02 (204)
*   307: obj =   4.000000000e+00  infeas =  0.000e+00 (88)
*   371: obj =   0.000000000e+00  infeas =  0.000e+00 (88)
OPTIMAL LP SOLUTION FOUND
Time used:   0.0 secs
Memory used: 4.0 Mb (4204959 bytes)
#OUTPUT:
0
-10 1 0 -1 0 0 6 -5 2 0 6 0 -2 0 0 0 -7 9 0 0 0 -2 -9 0 0 0 0 0 0 0 0 0 0 0 9 -7 0 0 0 0 0 0 -9 0 0 0 0 0 0 0 0 0 0 0 0 0 0 0 0 0 0 0 0 0 -2 0 0 0 0 0 0 0 0 0 0 0 0 0 0 0 0 0 0 0 0 0 0 0 0 1 0 0 0 0 0 0 0 0 0 0 0 0 0 0 0 0 0 0 0 0 0 0 0 0 0 0 0 0 0 0 0 0 0 0 -9 0 0 0 0 0 0 0 0 0 -7 0 -2 0 0 1 0 0 0 9 0 0 0 0 0 0 0 0 0 0 0 0 3 -10 0 0 0 0 0 0 0 0 0 0 0 0 0 0 0 0 0 0 -12 2 0 -1 0 0 -9 0 0 0 0 0 0 0 0 0 0 0 0 0 0 0 0 0 0 0 0 0 0 0 0 0 0 0 0 0 0 0 0 0 0 0 0 0 0 0 
-8 -1 0 1 -2 0 -6 5 -2 0 -6 0 0 0 0 0 8 -8 0 0 0 0 -10 0 0 0 0 0 0 0 0 0 0 0 -8 8 0 0 0 0 0 0 -10 0 0 0 0 0 0 0 0 0 0 0 0 0 0 0 0 0 0 0 0 0 3 0 0 0 0 0 0 0 0 0 0 0 0 0 0 0 0 0 0 0 0 0 0 0 0 0 0 0 0 0 0 0 0 0 0 0 0 0 0 0 0 0 0 0 0 0 0 0 0 0 0 0 0 0 0 0 0 0 0 0 -10 0 0 0 0 0 0 0 0 0 8 0 3 0 0 0 0 0 0 10 0 0 0 0 0 0 0 0 0 0 0 0 -2 -8 0 0 0 0 0 0 0 0 0 0 0 0 0 0 0 0 0 0 -8 -3 0 0 0 0 -10 0 0 0 0 0 0 0 0 0 0 0 0 0 0 0 0 0 0 0 0 0 0 0 0 0 0 0 0 0 0 0 0 0 0 0 0 0 0 0 
-10 0 -1 -2 2 -1 6 -5 2 0 6 0 0 0 -1 -3 8 10 0 -1 -1 0 -10 0 0 0 0 0 0 0 0 0 0 0 10 8 0 0 0 1 0 0 -10 0 0 0 0 0 -1 0 0 2 0 0 -1 0 0 0 0 -1 0 0 0 0 -4 0 0 0 0 0 0 0 1 -1 0 -2 0 0 0 0 0 1 0 0 0 0 0 0 0 1 0 0 0 0 0 0 -3 0 0 0 0 0 0 0 0 1 0 0 1 0 0 1 0 0 0 0 0 0 0 0 0 0 0 0 -10 0 0 0 0 0 -1 0 0 -1 8 0 -4 0 0 1 0 1 0 10 0 0 0 0 0 0 0 0 0 0 -1 0 3 -8 0 0 0 0 -1 0 0 3 0 0 -1 0 0 0 0 0 0 1 -8 -11 -5 -1 0 -1 -10 0 0 0 0 1 0 0 0 0 0 0 0 0 0 0 0 0 0 0 0 0 0 0 0 0 0 0 0 0 0 0 0 0 0 0 0 0 0 0 
-1 0 0 -1 0 -1 0 0 0 0 0 -1 0 0 0 0 0 0 0 0 0 0 0 0 0 0 0 0 0 0 0 0 0 0 0 0 0 0 0 0 0 0 0 0 0 0 0 0 0 0 0 0 0 0 0 0 0 0 0 0 0 -1 0 0 0 0 0 0 0 0 0 0 0 0 0 0 0 0 0 0 0 0 0 0 0 0 0 0 0 0 0 0 0 0 0 0 0 0 0 0 0 0 0 0 0 0 0 0 0 0 0 0 0 0 0 0 0 0 0 0 0 0 0 0 0 0 0 0 0 0 0 0 0 0 0 0 0 0 0 0 0 0 0 0 0 0 0 0 0 0 0 0 0 0 0 0 0 0 0 0 0 0 0 0 0 0 0 0 0 0 0 0 0 0 0 0 0 0 0 0 0 0 0 0 0 0 0 0 0 0 0 0 0 0 0 0 0 0 0 0 0 0 0 0 0 0 0 0 0 0 0 0 0 0 0 0 0 0 0 0 0 0 
#OUTPUT END
Model has been successfully processed
